NAME : 60_6_04.78355.tour
COMMENT : Cost = 0_78355
COMMENT : Found by LKH [Keld Helsgaun] Thu Sep 14 11:17:36 2017
TYPE : TOUR
DIMENSION : 66
TOUR_SECTION
1
51
8
6
53
5
54
35
52
3
2
65
7
38
16
15
36
19
20
14
21
45
30
29
66
4
43
44
56
59
55
31
58
33
57
32
63
9
13
64
61
12
10
11
23
27
28
24
22
37
62
60
41
39
40
34
42
49
50
26
47
25
46
48
17
18
-1
EOF
